Grasp exp. instance_n_25_m_10_id_1.lp tipoLifted 0 szPool 1 nIteration 100 alpha 1 
Academic license - for non-commercial use only
Read LP format model from file ../input/instancesGenerated/instance_n_25_m_10_id_1.lp
Reading time = 0.00 seconds
: 10 rows, 25 columns, 122 nonzeros
Optimize a model with 10 rows, 25 columns and 122 nonzeros
Variable types: 0 continuous, 25 integer (25 binary)
Coefficient statistics:
  Matrix range     [1e+00, 1e+01]
  Objective range  [1e+00, 1e+01]
  Bounds range     [1e+00, 1e+00]
  RHS range        [2e+01, 4e+01]
Found heuristic solution: objective 77.0000000

Explored 0 nodes (0 simplex iterations) in 0.00 seconds
Thread count was 1 (of 8 available processors)

Solution count 1: 77 
No other solutions better than 0

Solution limit reached
Best objective 7.700000000000e+01, best bound -, gap -
C_1:	 7.00 x_2  = 1.000000 + 1.00 x_4  = 1.000000 + 6.00 x_5  = 0.000000 + 1.00 x_7  = 1.000000 + 3.00 x_9  = 1.000000 + 7.00 x_10  = 0.464903 + 7.00 x_12  = 0.000000 + 1.00 x_15  = 1.000000 + 10.00 x_17  = 0.528138 + 8.00 x_18  = 0.093163 + 8.00 x_25  = 0.839873 <= 29.00
C_2:	 1.00 x_3  = 1.000000 + 1.00 x_6  = 0.000000 + 7.00 x_8  = 0.000000 + 3.00 x_9  = 1.000000 + 8.00 x_10  = 0.464903 + 8.00 x_16  = 0.688537 + 9.00 x_18  = 0.093163 + 6.00 x_19  = 0.326043 + 2.00 x_20  = 1.000000 + 9.00 x_23  = 0.806529 + 3.00 x_24  = 0.000000 + 8.00 x_25  = 0.839873 <= 32.00
C_3:	 9.00 x_1  = 0.055599 + 4.00 x_2  = 1.000000 + 1.00 x_3  = 1.000000 + 1.00 x_8  = 0.000000 + 4.00 x_9  = 1.000000 + 6.00 x_12  = 0.000000 + 3.00 x_14  = 0.000000 + 2.00 x_20  = 1.000000 + 7.00 x_21  = 0.000000 + 1.00 x_22  = 1.000000 + 7.00 x_23  = 0.806529 + 7.00 x_25  = 0.839873 <= 26.00
C_4:	 6.00 x_4  = 1.000000 + 2.00 x_6  = 0.000000 + 2.00 x_7  = 1.000000 + 5.00 x_10  = 0.464903 + 2.00 x_12  = 0.000000 + 4.00 x_17  = 0.528138 + 4.00 x_19  = 0.326043 + 8.00 x_21  = 0.000000 + 9.00 x_23  = 0.806529 <= 21.00
C_5:	 9.00 x_1  = 0.055599 + 5.00 x_2  = 1.000000 + 6.00 x_7  = 1.000000 + 2.00 x_9  = 1.000000 + 8.00 x_10  = 0.464903 + 10.00 x_11  = 1.000000 + 5.00 x_12  = 0.000000 + 6.00 x_13  = 1.000000 + 7.00 x_14  = 0.000000 + 1.00 x_15  = 1.000000 + 6.00 x_18  = 0.093163 + 8.00 x_19  = 0.326043 + 2.00 x_22  = 1.000000 + 2.00 x_23  = 0.806529 + 6.00 x_24  = 0.000000 <= 41.00
C_6:	 2.00 x_2  = 1.000000 + 6.00 x_5  = 0.000000 + 7.00 x_6  = 0.000000 + 6.00 x_7  = 1.000000 + 4.00 x_9  = 1.000000 + 8.00 x_12  = 0.000000 + 9.00 x_17  = 0.528138 + 4.00 x_21  = 0.000000 + 6.00 x_22  = 1.000000 + 2.00 x_23  = 0.806529 <= 27.00
C_7:	 8.00 x_1  = 0.055599 + 5.00 x_3  = 1.000000 + 8.00 x_8  = 0.000000 + 5.00 x_9  = 1.000000 + 7.00 x_10  = 0.464903 + 1.00 x_15  = 1.000000 + 4.00 x_16  = 0.688537 + 10.00 x_17  = 0.528138 + 1.00 x_20  = 1.000000 + 6.00 x_21  = 0.000000 + 5.00 x_22  = 1.000000 + 4.00 x_23  = 0.806529 + 4.00 x_24  = 0.000000 + 6.00 x_25  = 0.839873 <= 37.00
C_8:	 2.00 x_3  = 1.000000 + 10.00 x_5  = 0.000000 + 1.00 x_7  = 1.000000 + 3.00 x_8  = 0.000000 + 10.00 x_9  = 1.000000 + 9.00 x_11  = 1.000000 + 3.00 x_12  = 0.000000 + 8.00 x_13  = 1.000000 + 5.00 x_14  = 0.000000 + 5.00 x_16  = 0.688537 + 1.00 x_17  = 0.528138 + 6.00 x_18  = 0.093163 + 4.00 x_19  = 0.326043 + 1.00 x_20  = 1.000000 + 10.00 x_21  = 0.000000 + 1.00 x_23  = 0.806529 + 4.00 x_25  = 0.839873 <= 41.00
C_9:	 7.00 x_3  = 1.000000 + 3.00 x_5  = 0.000000 + 8.00 x_9  = 1.000000 + 4.00 x_11  = 1.000000 + 2.00 x_15  = 1.000000 + 3.00 x_16  = 0.688537 + 9.00 x_19  = 0.326043 + 10.00 x_21  = 0.000000 + 7.00 x_24  = 0.000000 <= 26.00
C_10:	 5.00 x_1  = 0.055599 + 4.00 x_2  = 1.000000 + 4.00 x_5  = 0.000000 + 4.00 x_6  = 0.000000 + 4.00 x_7  = 1.000000 + 10.00 x_12  = 0.000000 + 10.00 x_13  = 1.000000 + 1.00 x_14  = 0.000000 + 10.00 x_15  = 1.000000 + 2.00 x_16  = 0.688537 + 5.00 x_18  = 0.093163 + 6.00 x_21  = 0.000000 + 7.00 x_25  = 0.839873 <= 36.00
Solution initial: 95.445434 
Number Constraints Used in Cover:10
GRASP Method!
Number cuts repeat: 0
value: 95.445434
Number Constraints Used in Cover:13
GRASP Method!
Number cuts repeat: 0
value: 95.445434
Number Constraints Used in Cover:16
GRASP Method!
Number cuts repeat: 0
value: 95.445434
Number Constraints Used in Cover:19
GRASP Method!
Number cuts repeat: 0
value: 95.445434
Number Constraints Used in Cover:22
GRASP Method!
Number cuts repeat: 0
value: 95.445434
Number Constraints Used in Cover:25
GRASP Method!
Number cuts repeat: 0
value: 95.445434
Number Constraints Used in Cover:29
GRASP Method!
Number cuts repeat: 0
value: 95.445434
Number Constraints Used in Cover:33
GRASP Method!
Number cuts repeat: 0
value: 95.445434
Number Constraints Used in Cover:35
GRASP Method!
Number cuts repeat: 0
value: 95.445434
Number Constraints Used in Cover:38
GRASP Method!
Number cuts repeat: 0
value: 95.445434
Number Constraints Used in Cover:42
GRASP Method!
Number cuts repeat: 0
value: 95.445434
Number Constraints Used in Cover:45
GRASP Method!
Number cuts repeat: 0
value: 95.445434
Number Constraints Used in Cover:48
GRASP Method!
Number cuts repeat: 0
value: 95.445434
Number Constraints Used in Cover:50
GRASP Method!
Number cuts repeat: 0
value: 95.445434
Number Constraints Used in Cover:53
GRASP Method!
Number cuts repeat: 0
value: 95.445434
Number Constraints Used in Cover:56
GRASP Method!
Number cuts repeat: 0
value: 95.445434
Number Constraints Used in Cover:59
GRASP Method!
Number cuts repeat: 0
value: 95.445434
Number Constraints Used in Cover:61
GRASP Method!
Number cuts repeat: 0
value: 95.445434
Number Constraints Used in Cover:63
GRASP Method!
Number cuts repeat: 0
value: 95.445434
Number Constraints Used in Cover:66
GRASP Method!
Number cuts repeat: 0
value: 95.445434
Number Constraints Used in Cover:69
GRASP Method!
Number cuts repeat: 0
value: 95.445434
Number Constraints Used in Cover:73
GRASP Method!
Number cuts repeat: 0
value: 95.445434
Number Constraints Used in Cover:76
GRASP Method!
Number cuts repeat: 0
value: 95.445434
Number Constraints Used in Cover:79
GRASP Method!
Number cuts repeat: 0
value: 95.445434
Number Constraints Used in Cover:82
GRASP Method!
Number cuts repeat: 0
value: 95.445434
Number Constraints Used in Cover:85
GRASP Method!
Number cuts repeat: 0
value: 95.445434
Number Constraints Used in Cover:89
GRASP Method!
Number cuts repeat: 0
value: 95.445434
Number Constraints Used in Cover:92
GRASP Method!
Number cuts repeat: 0
value: 95.445434
Number Constraints Used in Cover:96
GRASP Method!
Number cuts repeat: 0
value: 95.445434
Number Constraints Used in Cover:101
GRASP Method!
Number cuts repeat: 0
value: 95.445434
Number Constraints Used in Cover:104
GRASP Method!
Number cuts repeat: 0
value: 95.445434
Number Constraints Used in Cover:108
GRASP Method!
Number cuts repeat: 0
value: 95.445434
Number Constraints Used in Cover:111
GRASP Method!
Number cuts repeat: 0
value: 95.445434
Number Constraints Used in Cover:114
GRASP Method!
Number cuts repeat: 0
value: 95.445434
Number Constraints Used in Cover:116
GRASP Method!
Number cuts repeat: 0
value: 95.445434
Number Constraints Used in Cover:120
GRASP Method!
Number cuts repeat: 0
value: 95.445434
Number Constraints Used in Cover:123
GRASP Method!
Number cuts repeat: 0
value: 95.445434
Number Constraints Used in Cover:127
GRASP Method!
Number cuts repeat: 0
value: 95.445434
Number Constraints Used in Cover:131
GRASP Method!
Number cuts repeat: 0
value: 95.445434
Number Constraints Used in Cover:134
GRASP Method!
Number cuts repeat: 0
value: 95.445434
Number Constraints Used in Cover:136
GRASP Method!
Number cuts repeat: 0
value: 95.445434
Number Constraints Used in Cover:139
GRASP Method!
Number cuts repeat: 0
value: 95.445434
Number Constraints Used in Cover:145
GRASP Method!
Number cuts repeat: 0
value: 95.445434
Number Constraints Used in Cover:147
GRASP Method!
Number cuts repeat: 0
value: 95.445434
Number Constraints Used in Cover:149
GRASP Method!
Number cuts repeat: 0
value: 95.445434
Number Constraints Used in Cover:152
GRASP Method!
Number cuts repeat: 0
value: 95.445434
Number Constraints Used in Cover:155
GRASP Method!
Number cuts repeat: 0
value: 95.445434
Number Constraints Used in Cover:157
GRASP Method!
Number cuts repeat: 0
value: 95.445434
Number Constraints Used in Cover:161
GRASP Method!
Number cuts repeat: 0
value: 95.445434
Number Constraints Used in Cover:166
GRASP Method!
Number cuts repeat: 0
value: 95.445434
Number Constraints Used in Cover:170
GRASP Method!
Number cuts repeat: 0
value: 95.445434
Number Constraints Used in Cover:172
GRASP Method!
Number cuts repeat: 0
value: 95.445434
Number Constraints Used in Cover:174
GRASP Method!
Number cuts repeat: 0
value: 95.445434
Number Constraints Used in Cover:176
GRASP Method!
Number cuts repeat: 0
value: 95.445434
Number Constraints Used in Cover:181
GRASP Method!
Number cuts repeat: 0
value: 95.445434
Number Constraints Used in Cover:183
GRASP Method!
Number cuts repeat: 0
value: 95.445434
Number Constraints Used in Cover:185
GRASP Method!
Number cuts repeat: 0
value: 95.445434
Number Constraints Used in Cover:189
GRASP Method!
Number cuts repeat: 0
value: 95.445434
Number Constraints Used in Cover:193
GRASP Method!
Number cuts repeat: 0
value: 95.445434
Number Constraints Used in Cover:197
GRASP Method!
Number cuts repeat: 0
value: 95.445434
Number Constraints Used in Cover:199
GRASP Method!
Number cuts repeat: 0
value: 95.445434
Number Constraints Used in Cover:203
GRASP Method!
Number cuts repeat: 0
value: 95.445434
Number Constraints Used in Cover:205
GRASP Method!
Number cuts repeat: 0
value: 95.445434
Number Constraints Used in Cover:207
GRASP Method!
Number cuts repeat: 0
value: 95.445434
Number Constraints Used in Cover:208
GRASP Method!
Number cuts repeat: 0
value: 95.445434
Number Constraints Used in Cover:212
GRASP Method!
Number cuts repeat: 0
value: 95.445434
Number Constraints Used in Cover:214
GRASP Method!
Number cuts repeat: 0
value: 95.445434
Number Constraints Used in Cover:217
GRASP Method!
Number cuts repeat: 0
value: 95.445434
Number Constraints Used in Cover:219
GRASP Method!
Number cuts repeat: 0
value: 95.445434
Number Constraints Used in Cover:222
GRASP Method!
Number cuts repeat: 0
value: 95.445434
Number Constraints Used in Cover:225
GRASP Method!
Number cuts repeat: 0
value: 95.445434
Number Constraints Used in Cover:228
GRASP Method!
Number cuts repeat: 0
value: 95.445434
Number Constraints Used in Cover:230
GRASP Method!
Number cuts repeat: 0
value: 95.445434
Number Constraints Used in Cover:233
GRASP Method!
Number cuts repeat: 0
value: 95.445434
Number Constraints Used in Cover:236
GRASP Method!
Number cuts repeat: 0
value: 95.445434
Number Constraints Used in Cover:238
GRASP Method!
Number cuts repeat: 0
value: 95.445434
Number Constraints Used in Cover:240
GRASP Method!
Number cuts repeat: 0
value: 95.445434
Number Constraints Used in Cover:243
GRASP Method!
Number cuts repeat: 0
value: 95.445434
Number Constraints Used in Cover:245
GRASP Method!
Number cuts repeat: 0
value: 95.445434
Number Constraints Used in Cover:248
GRASP Method!
Number cuts repeat: 0
value: 95.445434
Number Constraints Used in Cover:250
GRASP Method!
Number cuts repeat: 0
value: 95.445434
Number Constraints Used in Cover:252
GRASP Method!
Number cuts repeat: 0
value: 95.445434
Number Constraints Used in Cover:253
GRASP Method!
Number cuts repeat: 0
value: 95.445434
Number Constraints Used in Cover:255
GRASP Method!
Number cuts repeat: 0
value: 95.445434
Number Constraints Used in Cover:258
GRASP Method!
Number cuts repeat: 0
value: 95.445434
Number Constraints Used in Cover:262
GRASP Method!
Number cuts repeat: 0
value: 95.445434
Number Constraints Used in Cover:264
GRASP Method!
Number cuts repeat: 0
value: 95.445434
Number Constraints Used in Cover:267
GRASP Method!
Number cuts repeat: 0
value: 95.445434
Number Constraints Used in Cover:270
GRASP Method!
Number cuts repeat: 0
value: 95.445434
Number Constraints Used in Cover:271
GRASP Method!
Number cuts repeat: 0
value: 95.445434
Number Constraints Used in Cover:274
GRASP Method!
Number cuts repeat: 0
value: 95.445434
Number Constraints Used in Cover:275
GRASP Method!
Number cuts repeat: 0
value: 95.445434
Number Constraints Used in Cover:278
GRASP Method!
Number cuts repeat: 0
value: 95.445434
Number Constraints Used in Cover:280
GRASP Method!
Number cuts repeat: 0
value: 95.445434
Number Constraints Used in Cover:282
GRASP Method!
Number cuts repeat: 0
value: 95.445434
Number Constraints Used in Cover:284
GRASP Method!
Number cuts repeat: 0
value: 95.445434
Number Constraints Used in Cover:285
GRASP Method!
Number cuts repeat: 0
value: 95.445434
Number Constraints Used in Cover:285
GRASP Method!
Number cuts repeat: 0
value: 95.445434
Number Constraints Used in Cover:287
GRASP Method!
Number cuts repeat: 0
value: 95.445434
Number Constraints Used in Cover:291
GRASP Method!
Number cuts repeat: 0
value: 95.445434
Number Constraints Used in Cover:294
GRASP Method!
Number cuts repeat: 0
value: 95.445434
Number Constraints Used in Cover:296
GRASP Method!
Number cuts repeat: 0
value: 95.445434
Number Constraints Used in Cover:298
GRASP Method!
Number cuts repeat: 0
value: 95.445434
Number Constraints Used in Cover:299
GRASP Method!
Number cuts repeat: 0
value: 95.445434
Number Constraints Used in Cover:301
GRASP Method!
Number cuts repeat: 0
value: 95.445434
Number Constraints Used in Cover:302
GRASP Method!
Number cuts repeat: 0
value: 95.445434
Number Constraints Used in Cover:304
GRASP Method!
Number cuts repeat: 0
value: 95.445434
Number Constraints Used in Cover:306
GRASP Method!
Number cuts repeat: 0
value: 95.445434
Number Constraints Used in Cover:308
GRASP Method!
Number cuts repeat: 0
value: 95.445434
Number Constraints Used in Cover:310
GRASP Method!
Number cuts repeat: 0
value: 95.445434
Number Constraints Used in Cover:312
GRASP Method!
Number cuts repeat: 0
value: 95.445434
Number Constraints Used in Cover:313
GRASP Method!
Number cuts repeat: 0
value: 95.445434
Number Constraints Used in Cover:315
GRASP Method!
Number cuts repeat: 0
value: 95.445434
Number Constraints Used in Cover:317
GRASP Method!
Number cuts repeat: 0
value: 95.445434
Number Constraints Used in Cover:320
GRASP Method!
Number cuts repeat: 0
value: 95.445434
Number Constraints Used in Cover:322
GRASP Method!
Number cuts repeat: 0
value: 95.445434
Number Constraints Used in Cover:325
GRASP Method!
Number cuts repeat: 0
value: 95.445434
Number Constraints Used in Cover:327
GRASP Method!
Number cuts repeat: 0
value: 95.445434
Number Constraints Used in Cover:330
GRASP Method!
Number cuts repeat: 0
value: 95.445434
Number Constraints Used in Cover:331
GRASP Method!
Number cuts repeat: 0
value: 95.445434
Number Constraints Used in Cover:335
GRASP Method!
Number cuts repeat: 0
value: 95.445434
Number Constraints Used in Cover:337
GRASP Method!
Number cuts repeat: 0
value: 95.445434
Number Constraints Used in Cover:339
GRASP Method!
Number cuts repeat: 0
value: 95.445434
Number Constraints Used in Cover:342
GRASP Method!
Number cuts repeat: 0
value: 95.445434
Number Constraints Used in Cover:344
GRASP Method!
Number cuts repeat: 0
value: 95.445434
Number Constraints Used in Cover:346
GRASP Method!
Number cuts repeat: 0
value: 95.445434
Number Constraints Used in Cover:348
GRASP Method!
Number cuts repeat: 0
value: 95.445434
Number Constraints Used in Cover:350
GRASP Method!
Number cuts repeat: 0
value: 95.445434
Number Constraints Used in Cover:351
GRASP Method!
Number cuts repeat: 0
value: 95.445434
Number Constraints Used in Cover:354
GRASP Method!
Number cuts repeat: 0
value: 95.445434
Number Constraints Used in Cover:356
GRASP Method!
Number cuts repeat: 0
value: 95.445434
Number Constraints Used in Cover:358
GRASP Method!
Number cuts repeat: 0
value: 95.445434
Number Constraints Used in Cover:359
GRASP Method!
Number cuts repeat: 0
value: 95.445434
Number Constraints Used in Cover:362
GRASP Method!
Number cuts repeat: 0
value: 95.445434
Number Constraints Used in Cover:365
GRASP Method!
Number cuts repeat: 0
value: 95.445434
Number Constraints Used in Cover:366
GRASP Method!
Number cuts repeat: 0
value: 95.445434
Number Constraints Used in Cover:367
GRASP Method!
Number cuts repeat: 0
value: 95.445434
Number Constraints Used in Cover:369
GRASP Method!
Number cuts repeat: 0
value: 95.445434
Number Constraints Used in Cover:371
GRASP Method!
Number cuts repeat: 0
value: 95.445434
Number Constraints Used in Cover:374
GRASP Method!
Number cuts repeat: 0
value: 95.445434
Number Constraints Used in Cover:376
GRASP Method!
Number cuts repeat: 0
value: 95.445434
Number Constraints Used in Cover:377
GRASP Method!
Number cuts repeat: 0
value: 95.445434
Number Constraints Used in Cover:378
GRASP Method!
Number cuts repeat: 0
value: 95.445434
Number Constraints Used in Cover:380
GRASP Method!
Number cuts repeat: 0
value: 95.445434
Number Constraints Used in Cover:382
GRASP Method!
Number cuts repeat: 0
value: 95.445434
Number Constraints Used in Cover:384
GRASP Method!
Number cuts repeat: 0
value: 95.445434
Number Constraints Used in Cover:386
GRASP Method!
Number cuts repeat: 0
value: 95.445434
Number Constraints Used in Cover:389
GRASP Method!
Number cuts repeat: 0
value: 95.445434
Number Constraints Used in Cover:390
GRASP Method!
Number cuts repeat: 0
value: 95.410294
Number Constraints Used in Cover:393
GRASP Method!
Number cuts repeat: 0
value: 95.155653
Number Constraints Used in Cover:398
GRASP Method!
Number cuts repeat: 0
value: 95.155653
Number Constraints Used in Cover:402
GRASP Method!
Number cuts repeat: 0
value: 95.155653
Number Constraints Used in Cover:404
GRASP Method!
Number cuts repeat: 0
value: 95.155653
Number Constraints Used in Cover:408
GRASP Method!
Number cuts repeat: 0
value: 95.155653
Number Constraints Used in Cover:411
GRASP Method!
Number cuts repeat: 0
value: 95.155653
Number Constraints Used in Cover:415
GRASP Method!
Number cuts repeat: 0
value: 95.155653
Number Constraints Used in Cover:418
GRASP Method!
Number cuts repeat: 0
value: 95.155653
Number Constraints Used in Cover:422
GRASP Method!
Number cuts repeat: 0
value: 95.155653
Number Constraints Used in Cover:426
GRASP Method!
Number cuts repeat: 0
value: 95.155653
Number Constraints Used in Cover:431
GRASP Method!
Number cuts repeat: 0
value: 95.155653
Number Constraints Used in Cover:434
GRASP Method!
Number cuts repeat: 0
value: 95.155653
Number Constraints Used in Cover:437
GRASP Method!
Number cuts repeat: 0
value: 95.155653
Number Constraints Used in Cover:441
GRASP Method!
Number cuts repeat: 0
value: 95.155653
Number Constraints Used in Cover:444
GRASP Method!
Number cuts repeat: 0
value: 95.155653
Number Constraints Used in Cover:447
GRASP Method!
Number cuts repeat: 0
value: 95.155653
Number Constraints Used in Cover:449
GRASP Method!
Number cuts repeat: 0
value: 95.155653
Number Constraints Used in Cover:452
GRASP Method!
Number cuts repeat: 0
value: 95.155653
Number Constraints Used in Cover:455
GRASP Method!
Number cuts repeat: 0
value: 95.155653
Number Constraints Used in Cover:458
GRASP Method!
Number cuts repeat: 0
value: 95.155653
Number Constraints Used in Cover:461
GRASP Method!
Number cuts repeat: 0
value: 95.155653
Number Constraints Used in Cover:463
GRASP Method!
Number cuts repeat: 0
value: 95.155653
Number Constraints Used in Cover:465
GRASP Method!
Number cuts repeat: 0
value: 95.155653
Number Constraints Used in Cover:469
GRASP Method!
Number cuts repeat: 0
value: 95.155653
Number Constraints Used in Cover:472
GRASP Method!
Number cuts repeat: 0
value: 95.155653
Number Constraints Used in Cover:476
GRASP Method!
Number cuts repeat: 0
value: 95.155653
Number Constraints Used in Cover:480
GRASP Method!
Number cuts repeat: 0
value: 95.155653
Number Constraints Used in Cover:482
GRASP Method!
Number cuts repeat: 0
value: 95.155653
Number Constraints Used in Cover:485
GRASP Method!
Number cuts repeat: 0
value: 95.155653
Number Constraints Used in Cover:489
GRASP Method!
Number cuts repeat: 0
value: 95.155653
Number Constraints Used in Cover:492
GRASP Method!
Number cuts repeat: 0
value: 95.155653
Number Constraints Used in Cover:492
GRASP Method!
Number cuts repeat: 0
value: 95.155653
Number Constraints Used in Cover:495
GRASP Method!
Number cuts repeat: 0
value: 95.155653
Number Constraints Used in Cover:498
GRASP Method!
Number cuts repeat: 0
value: 95.155653
Number Constraints Used in Cover:501
GRASP Method!
Number cuts repeat: 0
value: 95.155653
Number Constraints Used in Cover:504
GRASP Method!
Number cuts repeat: 0
value: 95.155653
Number Constraints Used in Cover:508
GRASP Method!
Number cuts repeat: 0
value: 95.155653
Number Constraints Used in Cover:510
GRASP Method!
Number cuts repeat: 0
value: 95.155653
Number Constraints Used in Cover:512
GRASP Method!
Number cuts repeat: 0
value: 95.155653
Number Constraints Used in Cover:515
GRASP Method!
Number cuts repeat: 0
value: 95.155653
Number Constraints Used in Cover:517
GRASP Method!
Number cuts repeat: 0
value: 95.155653
Number Constraints Used in Cover:520
GRASP Method!
Number cuts repeat: 0
value: 95.155653
Number Constraints Used in Cover:521
GRASP Method!
Number cuts repeat: 0
value: 95.155653
Number Constraints Used in Cover:523
GRASP Method!
Number cuts repeat: 0
value: 95.155653
Number Constraints Used in Cover:525
GRASP Method!
Number cuts repeat: 0
value: 95.155653
Number Constraints Used in Cover:527
GRASP Method!
Number cuts repeat: 0
value: 95.155653
Number Constraints Used in Cover:529
GRASP Method!
Number cuts repeat: 0
value: 95.155653
Number Constraints Used in Cover:531
GRASP Method!
Number cuts repeat: 0
value: 95.155653
Number Constraints Used in Cover:534
GRASP Method!
Number cuts repeat: 0
value: 95.155653
Number Constraints Used in Cover:537
GRASP Method!
Number cuts repeat: 0
value: 95.155653
Number Constraints Used in Cover:538
GRASP Method!
Number cuts repeat: 0
value: 95.155653
Number Constraints Used in Cover:541
GRASP Method!
Number cuts repeat: 0
value: 95.155653
Number Constraints Used in Cover:543
GRASP Method!
Number cuts repeat: 0
value: 95.017834
Number Constraints Used in Cover:547
GRASP Method!
Number cuts repeat: 0
value: 95.017834
Number Constraints Used in Cover:549
GRASP Method!
Number cuts repeat: 0
value: 95.017834
Number Constraints Used in Cover:551
GRASP Method!
Number cuts repeat: 0
value: 95.017834
Number Constraints Used in Cover:554
GRASP Method!
Number cuts repeat: 0
value: 95.017834
Number Constraints Used in Cover:556
GRASP Method!
Number cuts repeat: 0
value: 95.017834
Number Constraints Used in Cover:559
GRASP Method!
Number cuts repeat: 0
value: 95.017834
Number Constraints Used in Cover:563
GRASP Method!
Number cuts repeat: 0
value: 95.017834
Number Constraints Used in Cover:566
GRASP Method!
Number cuts repeat: 0
value: 95.017834
Number Constraints Used in Cover:568
GRASP Method!
Number cuts repeat: 0
value: 95.017834
Number Constraints Used in Cover:570
GRASP Method!
Number cuts repeat: 0
value: 95.017834
Number Constraints Used in Cover:574
GRASP Method!
Number cuts repeat: 0
value: 95.017834
Number Constraints Used in Cover:579
GRASP Method!
Number cuts repeat: 0
value: 95.017834
Number Constraints Used in Cover:583
GRASP Method!
Number cuts repeat: 0
value: 95.017834
Number Constraints Used in Cover:585
GRASP Method!
Number cuts repeat: 0
value: 95.017834
Number Constraints Used in Cover:589
GRASP Method!
Number cuts repeat: 0
value: 95.017834
Number Constraints Used in Cover:593
GRASP Method!
Number cuts repeat: 0
value: 95.017834
Number Constraints Used in Cover:596
GRASP Method!
Number cuts repeat: 0
value: 95.017834
Number Constraints Used in Cover:601
GRASP Method!
Number cuts repeat: 0
value: 95.017834
Number Constraints Used in Cover:602
GRASP Method!
Number cuts repeat: 0
value: 95.017834
Number Constraints Used in Cover:604
GRASP Method!
Number cuts repeat: 0
value: 95.017834
Number Constraints Used in Cover:606
GRASP Method!
Number cuts repeat: 0
value: 95.017834
Number Constraints Used in Cover:608
GRASP Method!
Number cuts repeat: 0
value: 95.017834
Number Constraints Used in Cover:612
GRASP Method!
Number cuts repeat: 0
value: 95.017834
Number Constraints Used in Cover:614
GRASP Method!
Number cuts repeat: 0
value: 95.017834
Number Constraints Used in Cover:616
GRASP Method!
Number cuts repeat: 0
value: 95.017834
Number Constraints Used in Cover:618
GRASP Method!
Number cuts repeat: 0
value: 95.017834
Number Constraints Used in Cover:622
GRASP Method!
Number cuts repeat: 0
value: 95.017834
Number Constraints Used in Cover:626
GRASP Method!
Number cuts repeat: 0
value: 95.017834
Number Constraints Used in Cover:629
GRASP Method!
Number cuts repeat: 0
value: 95.017834
Number Constraints Used in Cover:631
GRASP Method!
Number cuts repeat: 0
value: 95.017834
Number Constraints Used in Cover:633
GRASP Method!
Number cuts repeat: 0
value: 95.017834
Number Constraints Used in Cover:636
GRASP Method!
Number cuts repeat: 0
value: 95.017834
Number Constraints Used in Cover:639
GRASP Method!
Number cuts repeat: 0
value: 95.017834
Number Constraints Used in Cover:642
GRASP Method!
Number cuts repeat: 0
value: 95.017834
Number Constraints Used in Cover:645
GRASP Method!
Number cuts repeat: 0
value: 95.017834
Number Constraints Used in Cover:647
GRASP Method!
Number cuts repeat: 0
value: 95.017834
Number Constraints Used in Cover:650
GRASP Method!
Number cuts repeat: 0
value: 95.017834
Number Constraints Used in Cover:653
GRASP Method!
Number cuts repeat: 0
value: 95.017834
Number Constraints Used in Cover:656
GRASP Method!
Number cuts repeat: 0
value: 95.017834
Number Constraints Used in Cover:658
GRASP Method!
Number cuts repeat: 0
value: 95.017834
Number Constraints Used in Cover:662
GRASP Method!
Number cuts repeat: 0
value: 95.017834
Number Constraints Used in Cover:664
GRASP Method!
Number cuts repeat: 0
value: 95.017834
Number Cuts Final: 657
